





























































































73 22 54 39 
71 3 2 
0 25 62 
28 29 1 47 
4 11 31 35 
56 21 51 23 
66 58 6 67 
36 19 5 
68 49 41 
33 63 69 52 
7 65 60 74 
15 72 17 59 
32 13 48 18 
27 44 70 8 
45 30 46 57 
16 53 14 43 
55 64 61 34 
75 50 40 26 
9 20 24 10 
38 37 12 
76 42 
